NAME: ACTUAL_TOURS/amz1564
TYPE: TOUR
COMMENT: RouteID_a8d37aac-30de-4f00-b053-e5a7c7cdd0c1
DIMENSION: 130
TOUR_SECTION
94
39
116
8
36
56
11
60
16
66
38
92
128
62
112
79
80
35
25
77
67
68
100
95
125
85
31
71
81
88
65
73
74
14
43
106
76
24
89
99
126
114
29
110
42
13
86
47
20
108
101
84
61
4
122
5
130
30
50
75
82
54
70
33
121
23
15
26
107
115
102
117
72
9
22
78
123
21
111
90
119
7
6
46
28
2
57
17
41
113
58
59
55
12
32
87
97
103
64
118
127
19
98
105
40
93
34
27
109
63
104
10
1
37
129
48
69
49
51
96
52
3
124
18
83
45
53
91
44
120
-1
EOF
